c Reduced graph for queen10_10 generated by Cyril Grelier
p edge 100 1470
e 1 8
e 1 11
e 1 15
e 1 24
e 1 26
e 1 27
e 1 28
e 1 29
e 1 35
e 1 36
e 1 37
e 1 39
e 1 40
e 1 45
e 1 47
e 1 49
e 1 50
e 1 52
e 1 54
e 1 55
e 1 62
e 1 69
e 1 71
e 1 77
e 1 78
e 1 80
e 1 87
e 1 91
e 1 93
e 1 94
e 1 95
e 1 98
e 1 99
e 2 8
e 2 9
e 2 11
e 2 14
e 2 16
e 2 20
e 2 21
e 2 22
e 2 28
e 2 38
e 2 42
e 2 46
e 2 51
e 2 52
e 2 62
e 2 63
e 2 64
e 2 66
e 2 67
e 2 68
e 2 72
e 2 73
e 2 77
e 2 80
e 2 83
e 2 86
e 2 92
e 2 93
e 2 99
e 3 4
e 3 5
e 3 12
e 3 17
e 3 18
e 3 23
e 3 25
e 3 26
e 3 27
e 3 28
e 3 29
e 3 31
e 3 36
e 3 48
e 3 53
e 3 56
e 3 57
e 3 64
e 3 65
e 3 67
e 3 70
e 3 72
e 3 75
e 3 77
e 3 86
e 3 96
e 3 99
e 4 5
e 4 7
e 4 10
e 4 15
e 4 20
e 4 24
e 4 25
e 4 26
e 4 30
e 4 32
e 4 33
e 4 43
e 4 47
e 4 48
e 4 57
e 4 64
e 4 65
e 4 67
e 4 75
e 4 80
e 4 83
e 4 86
e 4 88
e 4 92
e 4 98
e 4 99
e 5 7
e 5 8
e 5 14
e 5 25
e 5 26
e 5 31
e 5 38
e 5 39
e 5 40
e 5 48
e 5 50
e 5 52
e 5 56
e 5 61
e 5 64
e 5 65
e 5 68
e 5 74
e 5 75
e 5 82
e 5 90
e 5 91
e 5 92
e 5 94
e 5 99
e 6 12
e 6 14
e 6 20
e 6 21
e 6 22
e 6 30
e 6 32
e 6 34
e 6 35
e 6 37
e 6 44
e 6 47
e 6 53
e 6 54
e 6 59
e 6 61
e 6 69
e 6 72
e 6 73
e 6 74
e 6 75
e 6 81
e 6 84
e 6 85
e 6 87
e 6 96
e 6 98
e 7 9
e 7 23
e 7 24
e 7 25
e 7 27
e 7 28
e 7 31
e 7 32
e 7 33
e 7 37
e 7 38
e 7 39
e 7 41
e 7 44
e 7 50
e 7 52
e 7 53
e 7 57
e 7 58
e 7 61
e 7 66
e 7 72
e 7 74
e 7 78
e 7 82
e 7 86
e 7 88
e 7 91
e 7 92
e 7 97
e 7 98
e 8 11
e 8 13
e 8 14
e 8 16
e 8 20
e 8 27
e 8 28
e 8 35
e 8 37
e 8 38
e 8 45
e 8 51
e 8 55
e 8 56
e 8 57
e 8 59
e 8 64
e 8 67
e 8 68
e 8 79
e 8 80
e 8 86
e 8 91
e 8 92
e 8 94
e 8 95
e 8 97
e 8 99
e 9 10
e 9 13
e 9 19
e 9 21
e 9 23
e 9 25
e 9 28
e 9 29
e 9 32
e 9 33
e 9 34
e 9 37
e 9 43
e 9 44
e 9 45
e 9 46
e 9 58
e 9 59
e 9 61
e 9 62
e 9 63
e 9 68
e 9 72
e 9 83
e 9 93
e 9 99
e 9 100
e 10 13
e 10 15
e 10 16
e 10 18
e 10 21
e 10 24
e 10 30
e 10 33
e 10 43
e 10 46
e 10 47
e 10 50
e 10 53
e 10 55
e 10 58
e 10 59
e 10 67
e 10 73
e 10 76
e 10 80
e 10 81
e 10 82
e 10 87
e 10 92
e 10 95
e 10 96
e 10 100
e 11 14
e 11 16
e 11 20
e 11 28
e 11 29
e 11 32
e 11 36
e 11 38
e 11 39
e 11 41
e 11 47
e 11 52
e 11 54
e 11 55
e 11 60
e 11 65
e 11 67
e 11 75
e 11 76
e 11 84
e 11 86
e 11 89
e 11 90
e 11 95
e 12 18
e 12 21
e 12 22
e 12 23
e 12 27
e 12 29
e 12 35
e 12 43
e 12 47
e 12 49
e 12 55
e 12 56
e 12 59
e 12 62
e 12 63
e 12 69
e 12 74
e 12 77
e 12 82
e 12 84
e 12 85
e 12 86
e 12 90
e 12 94
e 12 96
e 13 16
e 13 18
e 13 19
e 13 21
e 13 24
e 13 29
e 13 32
e 13 33
e 13 34
e 13 37
e 13 43
e 13 45
e 13 50
e 13 51
e 13 53
e 13 55
e 13 57
e 13 59
e 13 61
e 13 62
e 13 64
e 13 70
e 13 74
e 13 76
e 13 79
e 13 93
e 13 96
e 13 97
e 14 16
e 14 20
e 14 28
e 14 34
e 14 35
e 14 38
e 14 39
e 14 40
e 14 43
e 14 44
e 14 46
e 14 53
e 14 54
e 14 65
e 14 67
e 14 73
e 14 75
e 14 77
e 14 78
e 14 79
e 14 85
e 14 86
e 14 89
e 14 90
e 14 91
e 14 98
e 15 19
e 15 27
e 15 29
e 15 30
e 15 33
e 15 36
e 15 37
e 15 38
e 15 40
e 15 43
e 15 47
e 15 49
e 15 50
e 15 51
e 15 63
e 15 66
e 15 67
e 15 68
e 15 69
e 15 75
e 15 77
e 15 79
e 15 80
e 15 82
e 15 92
e 15 93
e 15 94
e 15 98
e 16 17
e 16 20
e 16 21
e 16 22
e 16 24
e 16 25
e 16 26
e 16 28
e 16 38
e 16 39
e 16 41
e 16 44
e 16 45
e 16 49
e 16 50
e 16 53
e 16 67
e 16 76
e 16 81
e 16 86
e 16 88
e 16 89
e 16 96
e 17 18
e 17 22
e 17 23
e 17 24
e 17 25
e 17 28
e 17 30
e 17 31
e 17 36
e 17 39
e 17 41
e 17 45
e 17 49
e 17 51
e 17 53
e 17 54
e 17 59
e 17 61
e 17 68
e 17 70
e 17 71
e 17 81
e 17 88
e 17 89
e 17 90
e 17 91
e 17 98
e 18 23
e 18 27
e 18 29
e 18 33
e 18 41
e 18 46
e 18 55
e 18 56
e 18 58
e 18 59
e 18 61
e 18 70
e 18 71
e 18 73
e 18 74
e 18 77
e 18 81
e 18 82
e 18 86
e 18 87
e 18 93
e 18 95
e 18 96
e 18 98
e 19 20
e 19 27
e 19 29
e 19 32
e 19 34
e 19 38
e 19 40
e 19 42
e 19 43
e 19 45
e 19 46
e 19 47
e 19 48
e 19 51
e 19 58
e 19 61
e 19 62
e 19 63
e 19 66
e 19 70
e 19 75
e 19 85
e 19 94
e 19 100
e 20 28
e 20 30
e 20 37
e 20 38
e 20 42
e 20 48
e 20 58
e 20 61
e 20 66
e 20 67
e 20 70
e 20 72
e 20 83
e 20 85
e 20 86
e 20 87
e 20 94
e 20 96
e 20 100
e 21 22
e 21 24
e 21 46
e 21 47
e 21 50
e 21 53
e 21 58
e 21 59
e 21 63
e 21 68
e 21 69
e 21 72
e 21 74
e 21 76
e 21 83
e 21 84
e 21 85
e 21 93
e 21 96
e 21 99
e 22 25
e 22 39
e 22 42
e 22 45
e 22 47
e 22 49
e 22 51
e 22 52
e 22 59
e 22 62
e 22 69
e 22 73
e 22 74
e 22 77
e 22 81
e 22 84
e 22 85
e 22 88
e 22 89
e 22 92
e 22 95
e 23 24
e 23 25
e 23 27
e 23 28
e 23 29
e 23 30
e 23 33
e 23 34
e 23 37
e 23 44
e 23 48
e 23 50
e 23 51
e 23 54
e 23 56
e 23 58
e 23 67
e 23 68
e 23 70
e 23 71
e 23 77
e 23 81
e 23 83
e 23 84
e 23 86
e 23 90
e 23 91
e 23 96
e 23 97
e 24 26
e 24 28
e 24 30
e 24 32
e 24 40
e 24 50
e 24 51
e 24 53
e 24 54
e 24 57
e 24 62
e 24 68
e 24 69
e 24 70
e 24 71
e 24 76
e 24 78
e 24 86
e 24 87
e 24 88
e 24 90
e 24 91
e 24 96
e 24 98
e 25 26
e 25 28
e 25 33
e 25 37
e 25 39
e 25 44
e 25 45
e 25 48
e 25 49
e 25 58
e 25 64
e 25 65
e 25 75
e 25 76
e 25 81
e 25 88
e 25 89
e 25 99
e 26 28
e 26 30
e 26 31
e 26 40
e 26 41
e 26 44
e 26 48
e 26 62
e 26 64
e 26 65
e 26 69
e 26 71
e 26 75
e 26 78
e 26 86
e 26 87
e 26 93
e 26 97
e 26 99
e 26 100
e 27 29
e 27 35
e 27 38
e 27 39
e 27 40
e 27 41
e 27 45
e 27 51
e 27 53
e 27 56
e 27 63
e 27 66
e 27 72
e 27 75
e 27 77
e 27 78
e 27 80
e 27 86
e 27 91
e 27 92
e 27 95
e 27 96
e 27 97
e 27 99
e 28 31
e 28 33
e 28 36
e 28 37
e 28 38
e 28 40
e 28 44
e 28 53
e 28 58
e 28 62
e 28 67
e 28 69
e 28 71
e 28 78
e 28 86
e 28 87
e 29 32
e 29 34
e 29 39
e 29 43
e 29 45
e 29 47
e 29 52
e 29 54
e 29 55
e 29 56
e 29 61
e 29 62
e 29 66
e 29 68
e 29 69
e 29 77
e 29 79
e 29 82
e 29 86
e 29 96
e 30 31
e 30 33
e 30 37
e 30 43
e 30 47
e 30 51
e 30 54
e 30 61
e 30 67
e 30 68
e 30 70
e 30 72
e 30 80
e 30 86
e 30 87
e 30 90
e 30 91
e 30 92
e 30 93
e 30 96
e 30 97
e 30 100
e 31 36
e 31 38
e 31 40
e 31 42
e 31 44
e 31 50
e 31 52
e 31 53
e 31 56
e 31 57
e 31 61
e 31 74
e 31 76
e 31 80
e 31 82
e 31 83
e 31 86
e 31 89
e 31 91
e 31 93
e 31 97
e 31 100
e 32 34
e 32 36
e 32 41
e 32 43
e 32 45
e 32 57
e 32 60
e 32 61
e 32 62
e 32 65
e 32 76
e 32 81
e 32 84
e 32 86
e 32 88
e 32 90
e 32 95
e 32 98
e 33 35
e 33 37
e 33 43
e 33 44
e 33 47
e 33 52
e 33 58
e 33 60
e 33 63
e 33 67
e 33 70
e 33 71
e 33 74
e 33 79
e 33 80
e 33 88
e 33 92
e 33 93
e 33 96
e 33 100
e 34 35
e 34 36
e 34 43
e 34 44
e 34 45
e 34 48
e 34 50
e 34 53
e 34 54
e 34 61
e 34 62
e 34 67
e 34 71
e 34 73
e 34 74
e 34 75
e 34 81
e 34 83
e 34 84
e 34 87
e 34 88
e 34 97
e 34 98
e 35 44
e 35 45
e 35 49
e 35 52
e 35 53
e 35 54
e 35 60
e 35 62
e 35 63
e 35 71
e 35 73
e 35 75
e 35 79
e 35 80
e 35 82
e 35 88
e 35 90
e 35 91
e 35 95
e 35 96
e 35 98
e 35 99
e 35 100
e 36 37
e 36 41
e 36 49
e 36 50
e 36 53
e 36 60
e 36 65
e 36 74
e 36 76
e 36 77
e 36 84
e 36 87
e 36 88
e 36 90
e 36 93
e 36 94
e 36 95
e 36 98
e 37 44
e 37 49
e 37 50
e 37 51
e 37 55
e 37 57
e 37 58
e 37 59
e 37 61
e 37 64
e 37 72
e 37 77
e 37 79
e 37 87
e 37 93
e 37 94
e 37 96
e 37 97
e 37 98
e 38 40
e 38 49
e 38 50
e 38 51
e 38 52
e 38 54
e 38 56
e 38 60
e 38 61
e 38 63
e 38 64
e 38 67
e 38 74
e 38 75
e 38 78
e 38 82
e 38 86
e 38 91
e 39 40
e 39 41
e 39 45
e 39 47
e 39 49
e 39 52
e 39 53
e 39 54
e 39 55
e 39 66
e 39 72
e 39 78
e 39 81
e 39 88
e 39 89
e 39 90
e 39 92
e 39 97
e 40 42
e 40 44
e 40 51
e 40 56
e 40 57
e 40 62
e 40 63
e 40 69
e 40 71
e 40 75
e 40 76
e 40 78
e 40 80
e 40 83
e 40 87
e 40 89
e 40 90
e 41 44
e 41 53
e 41 59
e 41 60
e 41 61
e 41 65
e 41 66
e 41 71
e 41 72
e 41 76
e 41 78
e 41 84
e 41 90
e 41 92
e 41 95
e 41 97
e 41 98
e 42 44
e 42 48
e 42 51
e 42 52
e 42 56
e 42 57
e 42 58
e 42 62
e 42 66
e 42 70
e 42 73
e 42 76
e 42 77
e 42 80
e 42 83
e 42 85
e 42 89
e 42 92
e 42 94
e 42 99
e 42 100
e 43 45
e 43 46
e 43 47
e 43 55
e 43 61
e 43 62
e 43 63
e 43 65
e 43 67
e 43 77
e 43 78
e 43 79
e 43 80
e 43 85
e 43 89
e 43 91
e 43 92
e 43 94
e 44 53
e 44 54
e 44 56
e 44 57
e 44 58
e 44 73
e 44 75
e 44 76
e 44 80
e 44 83
e 44 89
e 44 98
e 45 49
e 45 60
e 45 61
e 45 62
e 45 69
e 45 73
e 45 80
e 45 81
e 45 88
e 45 89
e 45 91
e 45 95
e 45 99
e 46 47
e 46 55
e 46 58
e 46 63
e 46 65
e 46 68
e 46 72
e 46 73
e 46 77
e 46 78
e 46 79
e 46 81
e 46 82
e 46 83
e 46 85
e 46 87
e 46 89
e 46 91
e 46 93
e 46 95
e 46 99
e 47 52
e 47 54
e 47 55
e 47 59
e 47 67
e 47 69
e 47 74
e 47 80
e 47 84
e 47 85
e 47 92
e 48 50
e 48 58
e 48 64
e 48 65
e 48 66
e 48 67
e 48 70
e 48 71
e 48 75
e 48 81
e 48 83
e 48 84
e 48 85
e 48 94
e 48 97
e 48 99
e 48 100
e 49 50
e 49 54
e 49 56
e 49 60
e 49 62
e 49 64
e 49 77
e 49 78
e 49 81
e 49 82
e 49 88
e 49 89
e 49 90
e 49 93
e 49 94
e 49 98
e 50 52
e 50 53
e 50 61
e 50 67
e 50 71
e 50 74
e 50 76
e 50 77
e 50 81
e 50 82
e 50 83
e 50 84
e 50 91
e 50 93
e 50 94
e 50 96
e 50 97
e 50 98
e 51 52
e 51 54
e 51 55
e 51 57
e 51 59
e 51 62
e 51 63
e 51 64
e 51 68
e 51 70
e 51 73
e 51 75
e 51 77
e 51 79
e 51 90
e 51 91
e 51 92
e 51 97
e 52 54
e 52 55
e 52 60
e 52 61
e 52 62
e 52 63
e 52 71
e 52 73
e 52 74
e 52 77
e 52 79
e 52 82
e 52 88
e 52 91
e 52 92
e 52 96
e 52 100
e 53 54
e 53 66
e 53 72
e 53 73
e 53 75
e 53 76
e 53 78
e 53 92
e 53 96
e 53 97
e 53 98
e 54 55
e 54 56
e 54 60
e 54 64
e 54 68
e 54 70
e 54 73
e 54 75
e 54 78
e 54 90
e 54 91
e 54 98
e 55 57
e 55 58
e 55 59
e 55 63
e 55 64
e 55 73
e 55 79
e 55 81
e 55 82
e 55 87
e 55 94
e 55 95
e 55 97
e 56 57
e 56 60
e 56 64
e 56 68
e 56 76
e 56 77
e 56 78
e 56 80
e 56 83
e 56 86
e 56 89
e 56 92
e 56 94
e 56 96
e 57 59
e 57 64
e 57 67
e 57 70
e 57 72
e 57 76
e 57 79
e 57 80
e 57 83
e 57 86
e 57 88
e 57 89
e 57 97
e 57 98
e 58 66
e 58 70
e 58 73
e 58 81
e 58 82
e 58 85
e 58 87
e 58 94
e 58 95
e 58 100
e 59 61
e 59 64
e 59 69
e 59 71
e 59 74
e 59 79
e 59 84
e 59 85
e 59 97
e 59 98
e 59 100
e 60 63
e 60 64
e 60 65
e 60 69
e 60 71
e 60 73
e 60 76
e 60 78
e 60 79
e 60 84
e 60 88
e 60 90
e 60 95
e 60 96
e 60 100
e 61 62
e 61 71
e 61 72
e 61 74
e 61 82
e 61 87
e 61 91
e 61 96
e 61 98
e 62 69
e 62 71
e 62 73
e 62 77
e 62 78
e 62 82
e 62 87
e 62 90
e 62 92
e 63 68
e 63 71
e 63 72
e 63 75
e 63 79
e 63 83
e 63 88
e 63 93
e 63 94
e 63 96
e 63 99
e 63 100
e 64 65
e 64 66
e 64 75
e 64 78
e 64 79
e 64 80
e 64 97
e 64 99
e 65 75
e 65 76
e 65 77
e 65 78
e 65 79
e 65 84
e 65 85
e 65 89
e 65 90
e 65 91
e 65 95
e 65 99
e 66 68
e 66 69
e 66 70
e 66 72
e 66 78
e 66 79
e 66 80
e 66 82
e 66 85
e 66 92
e 66 94
e 66 97
e 66 100
e 67 70
e 67 71
e 67 72
e 67 80
e 67 81
e 67 83
e 67 84
e 67 86
e 67 92
e 67 97
e 68 69
e 68 70
e 68 72
e 68 79
e 68 82
e 68 83
e 68 90
e 68 91
e 68 92
e 68 93
e 68 94
e 68 99
e 69 71
e 69 73
e 69 74
e 69 78
e 69 79
e 69 82
e 69 84
e 69 85
e 69 87
e 70 72
e 70 74
e 70 85
e 70 90
e 70 91
e 70 93
e 70 94
e 70 100
e 71 78
e 71 79
e 71 81
e 71 83
e 71 84
e 71 87
e 71 88
e 71 96
e 71 97
e 71 98
e 71 100
e 72 78
e 72 83
e 72 87
e 72 92
e 72 93
e 72 96
e 72 97
e 72 99
e 73 75
e 73 77
e 73 81
e 73 82
e 73 87
e 73 92
e 73 95
e 73 98
e 74 82
e 74 84
e 74 85
e 74 87
e 74 88
e 74 91
e 74 93
e 75 89
e 75 98
e 75 99
e 76 80
e 76 83
e 76 84
e 76 89
e 76 90
e 76 95
e 76 96
e 77 78
e 77 79
e 77 85
e 77 86
e 77 89
e 77 91
e 77 92
e 77 93
e 77 94
e 77 96
e 77 98
e 78 79
e 78 85
e 78 87
e 78 89
e 78 91
e 78 92
e 78 97
e 79 82
e 79 85
e 79 88
e 79 89
e 79 91
e 79 96
e 79 97
e 79 100
e 80 83
e 80 89
e 80 91
e 80 92
e 80 95
e 80 99
e 81 82
e 81 83
e 81 84
e 81 87
e 81 88
e 81 89
e 81 95
e 81 97
e 82 87
e 82 90
e 82 91
e 82 95
e 83 84
e 83 89
e 83 93
e 83 97
e 83 99
e 84 85
e 84 90
e 84 95
e 84 97
e 85 89
e 85 91
e 85 94
e 85 100
e 86 88
e 86 93
e 86 96
e 86 97
e 86 98
e 86 100
e 87 88
e 87 95
e 87 96
e 88 89
e 88 96
e 88 98
e 88 100
e 89 91
e 90 91
e 90 95
e 91 95
e 91 99
e 92 94
e 92 97
e 93 94
e 93 97
e 93 98
e 93 99
e 93 100
e 94 98
e 94 100
e 95 99
e 96 100
e 97 100
